Set parameter TokenServer to value "hpc-licenses.hpcc.usc.edu"
Set parameter TimeLimit to value 3600
Gurobi Optimizer version 9.5.1 build v9.5.1rc2 (linux64)
Thread count: 20 physical cores, 20 logical processors, using up to 20 threads
Optimize a model with 6007 rows, 4529 columns and 24534 nonzeros
Model fingerprint: 0x27d1ae58
Variable types: 4506 continuous, 23 integer (23 binary)
Coefficient statistics:
  Matrix range     [1e+00, 1e+00]
  Objective range  [3e-06, 1e+00]
  Bounds range     [1e+00, 1e+00]
  RHS range        [1e+00, 1e+02]
Presolve removed 1520 rows and 1515 columns
Presolve time: 0.07s
Presolved: 4487 rows, 3014 columns, 21975 nonzeros
Variable types: 2994 continuous, 20 integer (20 binary)
Found heuristic solution: objective 260.2519737
Found heuristic solution: objective 260.5317358

Root relaxation: objective 2.729036e+02, 2924 iterations, 0.07 seconds (0.12 work units)

    Nodes    |    Current Node    |     Objective Bounds      |     Work
 Expl Unexpl |  Obj  Depth IntInf | Incumbent    BestBd   Gap | It/Node Time

     0     0  272.90360    0    2  260.53174  272.90360  4.75%     -    0s
     0     0  272.85710    0    2  260.53174  272.85710  4.73%     -    0s
     0     0  272.72982    0    2  260.53174  272.72982  4.68%     -    0s
     0     0  272.63966    0    2  260.53174  272.63966  4.65%     -    0s
H    0     0                     262.5025463  271.47086  3.42%     -    0s
     0     0  271.47086    0    6  262.50255  271.47086  3.42%     -    0s
     0     0  270.92933    0    3  262.50255  270.92933  3.21%     -    0s
     0     0  270.92933    0    3  262.50255  270.92933  3.21%     -    0s
     0     0  270.92311    0    2  262.50255  270.92311  3.21%     -    0s
     0     0  270.92311    0    6  262.50255  270.92311  3.21%     -    0s
     0     0  270.92311    0    2  262.50255  270.92311  3.21%     -    0s
H    0     0                     264.1282288  270.92311  2.57%     -    0s
     0     0  269.78149    0    6  264.12823  269.78149  2.14%     -    0s
     0     0  269.53849    0    2  264.12823  269.53849  2.05%     -    0s
H    0     0                     264.6466506  269.53849  1.85%     -    0s
     0     0  269.52987    0    6  264.64665  269.52987  1.85%     -    0s
     0     0  269.52987    0    2  264.64665  269.52987  1.85%     -    0s
     0     0  269.52987    0    6  264.64665  269.52987  1.85%     -    0s
     0     0  269.52987    0    6  264.64665  269.52987  1.85%     -    0s
     0     0  269.52987    0    3  264.64665  269.52987  1.85%     -    1s
     0     0  269.30402    0    6  264.64665  269.30402  1.76%     -    1s
     0     0  269.30402    0    6  264.64665  269.30402  1.76%     -    1s
     0     0  269.30402    0    6  264.64665  269.30402  1.76%     -    1s
     0     0  269.30402    0    6  264.64665  269.30402  1.76%     -    1s
     0     0  269.30402    0    6  264.64665  269.30402  1.76%     -    1s
     0     0  269.30402    0    6  264.64665  269.30402  1.76%     -    1s
     0     0  269.30402    0    6  264.64665  269.30402  1.76%     -    1s
     0     0  269.30402    0    6  264.64665  269.30402  1.76%     -    1s
     0     0  269.30402    0    6  264.64665  269.30402  1.76%     -    1s
     0     0  269.30402    0    6  264.64665  269.30402  1.76%     -    1s
     0     0  269.30402    0    6  264.64665  269.30402  1.76%     -    1s
H    0     0                     268.4151093  269.30402  0.33%     -    1s
     0     0  269.22051    0    5  268.41511  269.22051  0.30%     -    1s
     0     0  269.22051    0    2  268.41511  269.22051  0.30%     -    1s
     0     0  269.22051    0    2  268.41511  269.22051  0.30%     -    1s
     0     0  269.22051    0    2  268.41511  269.22051  0.30%     -    2s
     0     0  269.22051    0    2  268.41511  269.22051  0.30%     -    2s
     0     0  269.22051    0    2  268.41511  269.22051  0.30%     -    2s
     0     0  269.22051    0    5  268.41511  269.22051  0.30%     -    2s
     0     0  269.22051    0    5  268.41511  269.22051  0.30%     -    2s
     0     0  269.22051    0    7  268.41511  269.22051  0.30%     -    2s
     0     0  269.22051    0    7  268.41511  269.22051  0.30%     -    2s
     0     0  269.22051    0    7  268.41511  269.22051  0.30%     -    2s
     0     0  269.22051    0    5  268.41511  269.22051  0.30%     -    2s
     0     0  269.22051    0    6  268.41511  269.22051  0.30%     -    2s
     0     0  269.08184    0    2  268.41511  269.08184  0.25%     -    2s
     0     0  268.41511    0    7  268.41511  268.41511  0.00%     -    2s

Cutting planes:
  Gomory: 2
  MIR: 214
  Flow cover: 73
  RLT: 10
  Relax-and-lift: 8

Explored 1 nodes (7665 simplex iterations) in 2.92 seconds (1.45 work units)
Thread count was 20 (of 20 available processors)

Solution count 6: 268.415 264.647 264.128 ... 260.252

Optimal solution found (tolerance 1.00e-04)
Best objective 2.684151093102e+02, best bound 2.684151093102e+02, gap 0.0000%



#########node  1
V1.8
#########node  2
0.0,1.0
#########node  3
0.9673366834170853,0.03266331658291466


Total Solving Time 3.310577869415283
obj value 268.4151093102031
Policy Regret train (Sum) 13.487813242844421
Best Treatment Found train (%) 49.0
treatment classification acc train (%) 35.4
Policy Regret test (Sum) 61.813832268000596
Best Treatment Found test (%) 75.11
treatment classification acc test (%) 33.57
